Fe2                                     
1.0
       12.6721343994         0.0000000000         0.0000000000
       -6.3360671997        10.9743903101         0.0000000000
        0.0000000000         0.0000000000        20.1678810120
   Fe
  432
Direct
     0.055555556         0.111111112         0.041666668
     0.055555556         0.111111112         0.375000000
     0.055555556         0.111111112         0.708333313
     0.055555556         0.444444448         0.041666668
     0.055555556         0.444444448         0.375000000
     0.055555556         0.444444448         0.708333313
     0.055555556         0.777777791         0.041666668
     0.055555556         0.777777791         0.375000000
     0.055555556         0.777777791         0.708333313
     0.388888896         0.111111112         0.041666668
     0.388888896         0.111111112         0.375000000
     0.388888896         0.111111112         0.708333313
     0.388888896         0.444444448         0.041666668
     0.388888896         0.444444448         0.375000000
     0.388888896         0.444444448         0.708333313
     0.388888896         0.777777791         0.041666668
     0.388888896         0.777777791         0.375000000
     0.388888896         0.777777791         0.708333313
     0.722222209         0.111111112         0.041666668
     0.722222209         0.111111112         0.375000000
     0.722222209         0.111111112         0.708333313
     0.722222209         0.444444448         0.041666668
     0.722222209         0.444444448         0.375000000
     0.722222209         0.444444448         0.708333313
     0.722222209         0.777777791         0.041666668
     0.722222209         0.777777791         0.375000000
     0.722222209         0.777777791         0.708333313
     0.055555556         0.111111112         0.208333328
     0.055555556         0.111111112         0.541666687
     0.055555556         0.111111112         0.875000000
     0.055555556         0.444444448         0.208333328
     0.055555556         0.444444448         0.541666687
     0.055555556         0.444444448         0.875000000
     0.055555556         0.777777791         0.208333328
     0.055555556         0.777777791         0.541666687
     0.055555556         0.777777791         0.875000000
     0.388888896         0.111111112         0.208333328
     0.388888896         0.111111112         0.541666687
     0.388888896         0.111111112         0.875000000
     0.388888896         0.444444448         0.208333328
     0.388888896         0.444444448         0.541666687
     0.388888896         0.444444448         0.875000000
     0.388888896         0.777777791         0.208333328
     0.388888896         0.777777791         0.541666687
     0.388888896         0.777777791         0.875000000
     0.722222209         0.111111112         0.208333328
     0.722222209         0.111111112         0.541666687
     0.722222209         0.111111112         0.875000000
     0.722222209         0.444444448         0.208333328
     0.722222209         0.444444448         0.541666687
     0.722222209         0.444444448         0.875000000
     0.722222209         0.777777791         0.208333328
     0.722222209         0.777777791         0.541666687
     0.722222209         0.777777791         0.875000000
     0.055555556         0.277777791         0.041666668
     0.055555556         0.277777791         0.375000000
     0.055555556         0.277777791         0.708333313
     0.055555556         0.611111104         0.041666668
     0.055555556         0.611111104         0.375000000
     0.055555556         0.611111104         0.708333313
     0.055555556         0.944444478         0.041666668
     0.055555556         0.944444478         0.375000000
     0.055555556         0.944444478         0.708333313
     0.388888896         0.277777791         0.041666668
     0.388888896         0.277777791         0.375000000
     0.388888896         0.277777791         0.708333313
     0.388888896         0.611111104         0.041666668
     0.388888896         0.611111104         0.375000000
     0.388888896         0.611111104         0.708333313
     0.388888896         0.944444478         0.041666668
     0.388888896         0.944444478         0.375000000
     0.388888896         0.944444478         0.708333313
     0.722222209         0.277777791         0.041666668
     0.722222209         0.277777791         0.375000000
     0.722222209         0.277777791         0.708333313
     0.722222209         0.611111104         0.041666668
     0.722222209         0.611111104         0.375000000
     0.722222209         0.611111104         0.708333313
     0.722222209         0.944444478         0.041666668
     0.722222209         0.944444478         0.375000000
     0.722222209         0.944444478         0.708333313
     0.055555556         0.277777791         0.208333328
     0.055555556         0.277777791         0.541666687
     0.055555556         0.277777791         0.875000000
     0.055555556         0.611111104         0.208333328
     0.055555556         0.611111104         0.541666687
     0.055555556         0.611111104         0.875000000
     0.055555556         0.944444478         0.208333328
     0.055555556         0.944444478         0.541666687
     0.055555556         0.944444478         0.875000000
     0.388888896         0.277777791         0.208333328
     0.388888896         0.277777791         0.541666687
     0.388888896         0.277777791         0.875000000
     0.388888896         0.611111104         0.208333328
     0.388888896         0.611111104         0.541666687
     0.388888896         0.611111104         0.875000000
     0.388888896         0.944444478         0.208333328
     0.388888896         0.944444478         0.541666687
     0.388888896         0.944444478         0.875000000
     0.722222209         0.277777791         0.208333328
     0.722222209         0.277777791         0.541666687
     0.722222209         0.277777791         0.875000000
     0.722222209         0.611111104         0.208333328
     0.722222209         0.611111104         0.541666687
     0.722222209         0.611111104         0.875000000
     0.722222209         0.944444478         0.208333328
     0.722222209         0.944444478         0.541666687
     0.722222209         0.944444478         0.875000000
     0.222222224         0.111111112         0.041666668
     0.222222224         0.111111112         0.375000000
     0.222222224         0.111111112         0.708333313
     0.222222224         0.444444448         0.041666668
     0.222222224         0.444444448         0.375000000
     0.222222224         0.444444448         0.708333313
     0.222222224         0.777777791         0.041666668
     0.222222224         0.777777791         0.375000000
     0.222222224         0.777777791         0.708333313
     0.555555582         0.111111112         0.041666668
     0.555555582         0.111111112         0.375000000
     0.555555582         0.111111112         0.708333313
     0.555555582         0.444444448         0.041666668
     0.555555582         0.444444448         0.375000000
     0.555555582         0.444444448         0.708333313
     0.555555582         0.777777791         0.041666668
     0.555555582         0.777777791         0.375000000
     0.555555582         0.777777791         0.708333313
     0.888888896         0.111111112         0.041666668
     0.888888896         0.111111112         0.375000000
     0.888888896         0.111111112         0.708333313
     0.888888896         0.444444448         0.041666668
     0.888888896         0.444444448         0.375000000
     0.888888896         0.444444448         0.708333313
     0.888888896         0.777777791         0.041666668
     0.888888896         0.777777791         0.375000000
     0.888888896         0.777777791         0.708333313
     0.222222224         0.111111112         0.208333328
     0.222222224         0.111111112         0.541666687
     0.222222224         0.111111112         0.875000000
     0.222222224         0.444444448         0.208333328
     0.222222224         0.444444448         0.541666687
     0.222222224         0.444444448         0.875000000
     0.222222224         0.777777791         0.208333328
     0.222222224         0.777777791         0.541666687
     0.222222224         0.777777791         0.875000000
     0.555555582         0.111111112         0.208333328
     0.555555582         0.111111112         0.541666687
     0.555555582         0.111111112         0.875000000
     0.555555582         0.444444448         0.208333328
     0.555555582         0.444444448         0.541666687
     0.555555582         0.444444448         0.875000000
     0.555555582         0.777777791         0.208333328
     0.555555582         0.777777791         0.541666687
     0.555555582         0.777777791         0.875000000
     0.888888896         0.111111112         0.208333328
     0.888888896         0.111111112         0.541666687
     0.888888896         0.111111112         0.875000000
     0.888888896         0.444444448         0.208333328
     0.888888896         0.444444448         0.541666687
     0.888888896         0.444444448         0.875000000
     0.888888896         0.777777791         0.208333328
     0.888888896         0.777777791         0.541666687
     0.888888896         0.777777791         0.875000000
     0.222222224         0.277777791         0.041666668
     0.222222224         0.277777791         0.375000000
     0.222222224         0.277777791         0.708333313
     0.222222224         0.611111104         0.041666668
     0.222222224         0.611111104         0.375000000
     0.222222224         0.611111104         0.708333313
     0.222222224         0.944444478         0.041666668
     0.222222224         0.944444478         0.375000000
     0.222222224         0.944444478         0.708333313
     0.555555582         0.277777791         0.041666668
     0.555555582         0.277777791         0.375000000
     0.555555582         0.277777791         0.708333313
     0.555555582         0.611111104         0.041666668
     0.555555582         0.611111104         0.375000000
     0.555555582         0.611111104         0.708333313
     0.555555582         0.944444478         0.041666668
     0.555555582         0.944444478         0.375000000
     0.555555582         0.944444478         0.708333313
     0.888888896         0.277777791         0.041666668
     0.888888896         0.277777791         0.375000000
     0.888888896         0.277777791         0.708333313
     0.888888896         0.611111104         0.041666668
     0.888888896         0.611111104         0.375000000
     0.888888896         0.611111104         0.708333313
     0.888888896         0.944444478         0.041666668
     0.888888896         0.944444478         0.375000000
     0.888888896         0.944444478         0.708333313
     0.222222224         0.277777791         0.208333328
     0.222222224         0.277777791         0.541666687
     0.222222224         0.277777791         0.875000000
     0.222222224         0.611111104         0.208333328
     0.222222224         0.611111104         0.541666687
     0.222222224         0.611111104         0.875000000
     0.222222224         0.944444478         0.208333328
     0.222222224         0.944444478         0.541666687
     0.222222224         0.944444478         0.875000000
     0.555555582         0.277777791         0.208333328
     0.555555582         0.277777791         0.541666687
     0.555555582         0.277777791         0.875000000
     0.555555582         0.611111104         0.208333328
     0.555555582         0.611111104         0.541666687
     0.555555582         0.611111104         0.875000000
     0.555555582         0.944444478         0.208333328
     0.555555582         0.944444478         0.541666687
     0.555555582         0.944444478         0.875000000
     0.888888896         0.277777791         0.208333328
     0.888888896         0.277777791         0.541666687
     0.888888896         0.277777791         0.875000000
     0.888888896         0.611111104         0.208333328
     0.888888896         0.611111104         0.541666687
     0.888888896         0.611111104         0.875000000
     0.888888896         0.944444478         0.208333328
     0.888888896         0.944444478         0.541666687
     0.888888896         0.944444478         0.875000000
     0.111111104         0.055555552         0.125000000
     0.111111104         0.055555552         0.458333343
     0.111111104         0.055555552         0.791666687
     0.111111104         0.388888896         0.125000000
     0.111111104         0.388888896         0.458333343
     0.111111104         0.388888896         0.791666687
     0.111111104         0.722222209         0.125000000
     0.111111104         0.722222209         0.458333343
     0.111111104         0.722222209         0.791666687
     0.444444448         0.055555552         0.125000000
     0.444444448         0.055555552         0.458333343
     0.444444448         0.055555552         0.791666687
     0.444444448         0.388888896         0.125000000
     0.444444448         0.388888896         0.458333343
     0.444444448         0.388888896         0.791666687
     0.444444448         0.722222209         0.125000000
     0.444444448         0.722222209         0.458333343
     0.444444448         0.722222209         0.791666687
     0.777777791         0.055555552         0.125000000
     0.777777791         0.055555552         0.458333343
     0.777777791         0.055555552         0.791666687
     0.777777791         0.388888896         0.125000000
     0.777777791         0.388888896         0.458333343
     0.777777791         0.388888896         0.791666687
     0.777777791         0.722222209         0.125000000
     0.777777791         0.722222209         0.458333343
     0.777777791         0.722222209         0.791666687
     0.111111104         0.055555552         0.291666657
     0.111111104         0.055555552         0.625000000
     0.111111104         0.055555552         0.958333313
     0.111111104         0.388888896         0.291666657
     0.111111104         0.388888896         0.625000000
     0.111111104         0.388888896         0.958333313
     0.111111104         0.722222209         0.291666657
     0.111111104         0.722222209         0.625000000
     0.111111104         0.722222209         0.958333313
     0.444444448         0.055555552         0.291666657
     0.444444448         0.055555552         0.625000000
     0.444444448         0.055555552         0.958333313
     0.444444448         0.388888896         0.291666657
     0.444444448         0.388888896         0.625000000
     0.444444448         0.388888896         0.958333313
     0.444444448         0.722222209         0.291666657
     0.444444448         0.722222209         0.625000000
     0.444444448         0.722222209         0.958333313
     0.777777791         0.055555552         0.291666657
     0.777777791         0.055555552         0.625000000
     0.777777791         0.055555552         0.958333313
     0.777777791         0.388888896         0.291666657
     0.777777791         0.388888896         0.625000000
     0.777777791         0.388888896         0.958333313
     0.777777791         0.722222209         0.291666657
     0.777777791         0.722222209         0.625000000
     0.777777791         0.722222209         0.958333313
     0.111111104         0.222222209         0.125000000
     0.111111104         0.222222209         0.458333343
     0.111111104         0.222222209         0.791666687
     0.111111104         0.555555522         0.125000000
     0.111111104         0.555555522         0.458333343
     0.111111104         0.555555522         0.791666687
     0.111111104         0.888888896         0.125000000
     0.111111104         0.888888896         0.458333343
     0.111111104         0.888888896         0.791666687
     0.444444448         0.222222209         0.125000000
     0.444444448         0.222222209         0.458333343
     0.444444448         0.222222209         0.791666687
     0.444444448         0.555555522         0.125000000
     0.444444448         0.555555522         0.458333343
     0.444444448         0.555555522         0.791666687
     0.444444448         0.888888896         0.125000000
     0.444444448         0.888888896         0.458333343
     0.444444448         0.888888896         0.791666687
     0.777777791         0.222222209         0.125000000
     0.777777791         0.222222209         0.458333343
     0.777777791         0.222222209         0.791666687
     0.777777791         0.555555522         0.125000000
     0.777777791         0.555555522         0.458333343
     0.777777791         0.555555522         0.791666687
     0.777777791         0.888888896         0.125000000
     0.777777791         0.888888896         0.458333343
     0.777777791         0.888888896         0.791666687
     0.111111104         0.222222209         0.291666657
     0.111111104         0.222222209         0.625000000
     0.111111104         0.222222209         0.958333313
     0.111111104         0.555555522         0.291666657
     0.111111104         0.555555522         0.625000000
     0.111111104         0.555555522         0.958333313
     0.111111104         0.888888896         0.291666657
     0.111111104         0.888888896         0.625000000
     0.111111104         0.888888896         0.958333313
     0.444444448         0.222222209         0.291666657
     0.444444448         0.222222209         0.625000000
     0.444444448         0.222222209         0.958333313
     0.444444448         0.555555522         0.291666657
     0.444444448         0.555555522         0.625000000
     0.444444448         0.555555522         0.958333313
     0.444444448         0.888888896         0.291666657
     0.444444448         0.888888896         0.625000000
     0.444444448         0.888888896         0.958333313
     0.777777791         0.222222209         0.291666657
     0.777777791         0.222222209         0.625000000
     0.777777791         0.222222209         0.958333313
     0.777777791         0.555555522         0.291666657
     0.777777791         0.555555522         0.625000000
     0.777777791         0.555555522         0.958333313
     0.777777791         0.888888896         0.291666657
     0.777777791         0.888888896         0.625000000
     0.777777791         0.888888896         0.958333313
     0.277777761         0.055555552         0.125000000
     0.277777761         0.055555552         0.458333343
     0.277777761         0.055555552         0.791666687
     0.277777761         0.388888896         0.125000000
     0.277777761         0.388888896         0.458333343
     0.277777761         0.388888896         0.791666687
     0.277777761         0.722222209         0.125000000
     0.277777761         0.722222209         0.458333343
     0.277777761         0.722222209         0.791666687
     0.611111104         0.055555552         0.125000000
     0.611111104         0.055555552         0.458333343
     0.611111104         0.055555552         0.791666687
     0.611111104         0.388888896         0.125000000
     0.611111104         0.388888896         0.458333343
     0.611111104         0.388888896         0.791666687
     0.611111104         0.722222209         0.125000000
     0.611111104         0.722222209         0.458333343
     0.611111104         0.722222209         0.791666687
     0.944444418         0.055555552         0.125000000
     0.944444418         0.055555552         0.458333343
     0.944444418         0.055555552         0.791666687
     0.944444418         0.388888896         0.125000000
     0.944444418         0.388888896         0.458333343
     0.944444418         0.388888896         0.791666687
     0.944444418         0.722222209         0.125000000
     0.944444418         0.722222209         0.458333343
     0.944444418         0.722222209         0.791666687
     0.277777761         0.055555552         0.291666657
     0.277777761         0.055555552         0.625000000
     0.277777761         0.055555552         0.958333313
     0.277777761         0.388888896         0.291666657
     0.277777761         0.388888896         0.625000000
     0.277777761         0.388888896         0.958333313
     0.277777761         0.722222209         0.291666657
     0.277777761         0.722222209         0.625000000
     0.277777761         0.722222209         0.958333313
     0.611111104         0.055555552         0.291666657
     0.611111104         0.055555552         0.625000000
     0.611111104         0.055555552         0.958333313
     0.611111104         0.388888896         0.291666657
     0.611111104         0.388888896         0.625000000
     0.611111104         0.388888896         0.958333313
     0.611111104         0.722222209         0.291666657
     0.611111104         0.722222209         0.625000000
     0.611111104         0.722222209         0.958333313
     0.944444418         0.055555552         0.291666657
     0.944444418         0.055555552         0.625000000
     0.944444418         0.055555552         0.958333313
     0.944444418         0.388888896         0.291666657
     0.944444418         0.388888896         0.625000000
     0.944444418         0.388888896         0.958333313
     0.944444418         0.722222209         0.291666657
     0.944444418         0.722222209         0.625000000
     0.944444418         0.722222209         0.958333313
     0.277777761         0.222222209         0.125000000
     0.277777761         0.222222209         0.458333343
     0.277777761         0.222222209         0.791666687
     0.277777761         0.555555522         0.125000000
     0.277777761         0.555555522         0.458333343
     0.277777761         0.555555522         0.791666687
     0.277777761         0.888888896         0.125000000
     0.277777761         0.888888896         0.458333343
     0.277777761         0.888888896         0.791666687
     0.611111104         0.222222209         0.125000000
     0.611111104         0.222222209         0.458333343
     0.611111104         0.222222209         0.791666687
     0.611111104         0.555555522         0.125000000
     0.611111104         0.555555522         0.458333343
     0.611111104         0.555555522         0.791666687
     0.611111104         0.888888896         0.125000000
     0.611111104         0.888888896         0.458333343
     0.611111104         0.888888896         0.791666687
     0.944444418         0.222222209         0.125000000
     0.944444418         0.222222209         0.458333343
     0.944444418         0.222222209         0.791666687
     0.944444418         0.555555522         0.125000000
     0.944444418         0.555555522         0.458333343
     0.944444418         0.555555522         0.791666687
     0.944444418         0.888888896         0.125000000
     0.944444418         0.888888896         0.458333343
     0.944444418         0.888888896         0.791666687
     0.277777761         0.222222209         0.291666657
     0.277777761         0.222222209         0.625000000
     0.277777761         0.222222209         0.958333313
     0.277777761         0.555555522         0.291666657
     0.277777761         0.555555522         0.625000000
     0.277777761         0.555555522         0.958333313
     0.277777761         0.888888896         0.291666657
     0.277777761         0.888888896         0.625000000
     0.277777761         0.888888896         0.958333313
     0.611111104         0.222222209         0.291666657
     0.611111104         0.222222209         0.625000000
     0.611111104         0.222222209         0.958333313
     0.611111104         0.555555522         0.291666657
     0.611111104         0.555555522         0.625000000
     0.611111104         0.555555522         0.958333313
     0.611111104         0.888888896         0.291666657
     0.611111104         0.888888896         0.625000000
     0.611111104         0.888888896         0.958333313
     0.944444418         0.222222209         0.291666657
     0.944444418         0.222222209         0.625000000
     0.944444418         0.222222209         0.958333313
     0.944444418         0.555555522         0.291666657
     0.944444418         0.555555522         0.625000000
     0.944444418         0.555555522         0.958333313
     0.944444418         0.888888896         0.291666657
     0.944444418         0.888888896         0.625000000
     0.944444418         0.888888896         0.958333313
