Fe bcc (alpha), from Wyckoff Vol. 1     
   1.00000000000000     
    14.1509834412813280   -0.0000000000000000   -0.0000000000000000
    -0.0000000000000000   14.1509834412813280   -0.0000000000000000
     0.0000000000000000    0.0000000000000000   14.1509834412813280
   Fe
   432
Direct
  0.0000000000000000 -0.0000000000000000  0.0000000000000000
  0.0833333360000026  0.0833333360000026  0.0833333360000026
  0.0000000000000000 -0.0000000000000000  0.1666666719999981
  0.0000000000000000  0.0000000000000000  0.8333333129999971
  0.1666666719999981 -0.0000000000000000  0.0000000000000000
  0.8333333129999971 -0.0000000000000000  0.0000000000000000
  0.0000000000000000  0.1666666719999981  0.0000000000000000
  0.0000000000000000  0.8333333129999971  0.0000000000000000
  0.0833333360000026  0.0833333360000026  0.2500000000000000
  0.0833333360000026  0.0833333360000026  0.9166666870000029
  0.2500000000000000  0.0833333360000026  0.0833333360000026
  0.9166666870000029  0.0833333360000026  0.0833333360000026
  0.0833333360000026  0.2500000000000000  0.0833333360000026
  0.0833333360000026  0.9166666870000029  0.0833333360000026
  0.0000000000000000  0.0000000000000000  0.3333333429999996
  0.0000000000000000  0.0000000000000000  0.6666666870000029
  0.3333333429999996  0.0000000000000000  0.0000000000000000
  0.6666666870000029 -0.0000000000000000  0.0000000000000000
  0.0000000000000000  0.3333333429999996  0.0000000000000000
  0.0000000000000000  0.6666666870000029  0.0000000000000000
  0.0833333360000026  0.0833333360000026  0.4166666570000004
  0.0833333360000026  0.0833333360000026  0.7500000000000000
  0.4166666570000004  0.0833333360000026  0.0833333360000026
  0.7500000000000000  0.0833333360000026  0.0833333360000026
  0.0833333360000026  0.4166666570000004  0.0833333360000026
  0.0833333360000026  0.7500000000000000  0.0833333360000026
  0.0000000000000000  0.0000000000000000  0.5000000000000000
  0.5000000000000000 -0.0000000000000000  0.0000000000000000
  0.0000000000000000  0.5000000000000000  0.0000000000000000
  0.0833333360000026  0.0833333360000026  0.5833333129999971
  0.5833333129999971  0.0833333360000026  0.0833333360000026
  0.0833333360000026  0.5833333129999971  0.0833333360000026
  0.0000000000000000  0.1666666719999981  0.1666666719999981
  0.0000000000000000  0.8333333129999971  0.8333333129999971
  0.0000000000000000  0.8333333129999971  0.1666666719999981
  0.0000000000000000  0.1666666719999981  0.8333333129999971
  0.1666666719999981  0.0000000000000000  0.1666666719999981
  0.8333333129999971  0.0000000000000000  0.8333333129999971
  0.1666666719999981  0.0000000000000000  0.8333333129999971
  0.8333333129999971 -0.0000000000000000  0.1666666719999981
  0.1666666719999981  0.1666666719999981  0.0000000000000000
  0.8333333129999971  0.8333333129999971  0.0000000000000000
  0.8333333129999971  0.1666666719999981  0.0000000000000000
  0.1666666719999981  0.8333333129999971  0.0000000000000000
  0.0833333360000026  0.2500000000000000  0.2500000000000000
  0.0833333360000026  0.9166666870000029  0.9166666870000029
  0.0833333360000026  0.9166666870000029  0.2500000000000000
  0.0833333360000026  0.2500000000000000  0.9166666870000029
  0.2500000000000000  0.0833333360000026  0.2500000000000000
  0.9166666870000029  0.0833333360000026  0.9166666870000029
  0.2500000000000000  0.0833333360000026  0.9166666870000029
  0.9166666870000029  0.0833333360000026  0.2500000000000000
  0.2500000000000000  0.2500000000000000  0.0833333360000026
  0.9166666870000029  0.9166666870000029  0.0833333360000026
  0.9166666870000029  0.2500000000000000  0.0833333360000026
  0.2500000000000000  0.9166666870000029  0.0833333360000026
  0.0000000000000000  0.1666666719999981  0.3333333429999996
 -0.0000000000000000  0.8333333129999971  0.6666666870000029
  0.0000000000000000  0.8333333129999971  0.3333333429999996
  0.0000000000000000  0.1666666719999981  0.6666666870000029
  0.3333333429999996  0.0000000000000000  0.1666666719999981
  0.6666666870000029  0.0000000000000000  0.8333333129999971
  0.3333333429999996 -0.0000000000000000  0.8333333129999971
  0.6666666870000029 -0.0000000000000000  0.1666666719999981
  0.1666666719999981  0.3333333429999996  0.0000000000000000
  0.8333333129999971  0.6666666870000029  0.0000000000000000
  0.8333333129999971  0.3333333429999996  0.0000000000000000
  0.1666666719999981  0.6666666870000029  0.0000000000000000
  0.1666666719999981  0.0000000000000000  0.6666666870000029
  0.8333333129999971  0.0000000000000000  0.3333333429999996
  0.8333333129999971  0.0000000000000000  0.6666666870000029
  0.1666666719999981 -0.0000000000000000  0.3333333429999996
  0.0000000000000000  0.3333333429999996  0.8333333129999971
  0.0000000000000000  0.6666666870000029  0.1666666719999981
  0.0000000000000000  0.3333333429999996  0.1666666719999981
 -0.0000000000000000  0.6666666870000029  0.8333333129999971
  0.3333333429999996  0.1666666719999981  0.0000000000000000
  0.6666666870000029  0.8333333129999971 -0.0000000000000000
  0.3333333429999996  0.8333333129999971  0.0000000000000000
  0.6666666870000029  0.1666666719999981  0.0000000000000000
  0.0833333360000026  0.2500000000000000  0.4166666570000004
  0.0833333360000026  0.9166666870000029  0.7500000000000000
  0.0833333360000026  0.9166666870000029  0.4166666570000004
  0.0833333360000026  0.2500000000000000  0.7500000000000000
  0.4166666570000004  0.0833333360000026  0.2500000000000000
  0.7500000000000000  0.0833333360000026  0.9166666870000029
  0.4166666570000004  0.0833333360000026  0.9166666870000029
  0.7500000000000000  0.0833333360000026  0.2500000000000000
  0.2500000000000000  0.4166666570000004  0.0833333360000026
  0.9166666870000029  0.7500000000000000  0.0833333360000026
  0.9166666870000029  0.4166666570000004  0.0833333360000026
  0.2500000000000000  0.7500000000000000  0.0833333360000026
  0.2500000000000000  0.0833333360000026  0.7500000000000000
  0.9166666870000029  0.0833333360000026  0.4166666570000004
  0.9166666870000029  0.0833333360000026  0.7500000000000000
  0.2500000000000000  0.0833333360000026  0.4166666570000004
  0.0833333360000026  0.4166666570000004  0.9166666870000029
  0.0833333360000026  0.7500000000000000  0.2500000000000000
  0.0833333360000026  0.4166666570000004  0.2500000000000000
  0.0833333360000026  0.7500000000000000  0.9166666870000029
  0.4166666570000004  0.2500000000000000  0.0833333360000026
  0.7500000000000000  0.9166666870000029  0.0833333360000026
  0.4166666570000004  0.9166666870000029  0.0833333360000026
  0.7500000000000000  0.2500000000000000  0.0833333360000026
  0.0000000000000000  0.1666666719999981  0.5000000000000000
  0.0000000000000000  0.8333333129999971  0.5000000000000000
  0.5000000000000000 -0.0000000000000000  0.1666666719999981
  0.5000000000000000  0.0000000000000000  0.8333333129999971
  0.1666666719999981  0.5000000000000000  0.0000000000000000
  0.8333333129999971  0.5000000000000000 -0.0000000000000000
  0.1666666719999981 -0.0000000000000000  0.5000000000000000
  0.8333333129999971  0.0000000000000000  0.5000000000000000
 -0.0000000000000000  0.5000000000000000  0.8333333129999971
  0.0000000000000000  0.5000000000000000  0.1666666719999981
  0.5000000000000000  0.1666666719999981 -0.0000000000000000
  0.5000000000000000  0.8333333129999971 -0.0000000000000000
  0.0833333360000026  0.2500000000000000  0.5833333129999971
  0.0833333360000026  0.9166666870000029  0.5833333129999971
  0.5833333129999971  0.0833333360000026  0.2500000000000000
  0.5833333129999971  0.0833333360000026  0.9166666870000029
  0.2500000000000000  0.5833333129999971  0.0833333360000026
  0.9166666870000029  0.5833333129999971  0.0833333360000026
  0.2500000000000000  0.0833333360000026  0.5833333129999971
  0.9166666870000029  0.0833333360000026  0.5833333129999971
  0.0833333360000026  0.5833333129999971  0.9166666870000029
  0.0833333360000026  0.5833333129999971  0.2500000000000000
  0.5833333129999971  0.2500000000000000  0.0833333360000026
  0.5833333129999971  0.9166666870000029  0.0833333360000026
  0.0000000000000000  0.3333333429999996  0.3333333429999996
 -0.0000000000000000  0.6666666870000029  0.6666666870000029
  0.0000000000000000  0.6666666870000029  0.3333333429999996
 -0.0000000000000000  0.3333333429999996  0.6666666870000029
  0.3333333429999996 -0.0000000000000000  0.3333333429999996
  0.6666666870000029  0.0000000000000000  0.6666666870000029
  0.3333333429999996 -0.0000000000000000  0.6666666870000029
  0.6666666870000029 -0.0000000000000000  0.3333333429999996
  0.3333333429999996  0.3333333429999996  0.0000000000000000
  0.6666666870000029  0.6666666870000029 -0.0000000000000000
  0.6666666870000029  0.3333333429999996 -0.0000000000000000
  0.3333333429999996  0.6666666870000029  0.0000000000000000
  0.0833333360000026  0.4166666570000004  0.4166666570000004
  0.0833333360000026  0.7500000000000000  0.7500000000000000
  0.0833333360000026  0.7500000000000000  0.4166666570000004
  0.0833333360000026  0.4166666570000004  0.7500000000000000
  0.4166666570000004  0.0833333360000026  0.4166666570000004
  0.7500000000000000  0.0833333360000026  0.7500000000000000
  0.4166666570000004  0.0833333360000026  0.7500000000000000
  0.7500000000000000  0.0833333360000026  0.4166666570000004
  0.4166666570000004  0.4166666570000004  0.0833333360000026
  0.7500000000000000  0.7500000000000000  0.0833333360000026
  0.7500000000000000  0.4166666570000004  0.0833333360000026
  0.4166666570000004  0.7500000000000000  0.0833333360000026
 -0.0000000000000000  0.3333333429999996  0.5000000000000000
 -0.0000000000000000  0.6666666870000029  0.5000000000000000
  0.5000000000000000 -0.0000000000000000  0.3333333429999996
  0.5000000000000000  0.0000000000000000  0.6666666870000029
  0.3333333429999996  0.5000000000000000  0.0000000000000000
  0.6666666870000029  0.5000000000000000 -0.0000000000000000
  0.3333333429999996  0.0000000000000000  0.5000000000000000
  0.6666666870000029  0.0000000000000000  0.5000000000000000
 -0.0000000000000000  0.5000000000000000  0.6666666870000029
  0.0000000000000000  0.5000000000000000  0.3333333429999996
  0.5000000000000000  0.3333333429999996  0.0000000000000000
  0.5000000000000000  0.6666666870000029 -0.0000000000000000
  0.0833333360000026  0.4166666570000004  0.5833333129999971
  0.0833333360000026  0.7500000000000000  0.5833333129999971
  0.5833333129999971  0.0833333360000026  0.4166666570000004
  0.5833333129999971  0.0833333360000026  0.7500000000000000
  0.4166666570000004  0.5833333129999971  0.0833333360000026
  0.7500000000000000  0.5833333129999971  0.0833333360000026
  0.4166666570000004  0.0833333360000026  0.5833333129999971
  0.7500000000000000  0.0833333360000026  0.5833333129999971
  0.0833333360000026  0.5833333129999971  0.7500000000000000
  0.0833333360000026  0.5833333129999971  0.4166666570000004
  0.5833333129999971  0.4166666570000004  0.0833333360000026
  0.5833333129999971  0.7500000000000000  0.0833333360000026
 -0.0000000000000000  0.5000000000000000  0.5000000000000000
  0.5000000000000000 -0.0000000000000000  0.5000000000000000
  0.5000000000000000  0.5000000000000000 -0.0000000000000000
  0.0833333360000026  0.5833333129999971  0.5833333129999971
  0.5833333129999971  0.0833333360000026  0.5833333129999971
  0.5833333129999971  0.5833333129999971  0.0833333360000026
  0.1666666719999981  0.1666666719999981  0.1666666719999981
  0.8333333129999971  0.8333333129999971  0.8333333129999971
  0.8333333129999971  0.8333333129999971  0.1666666719999981
  0.1666666719999981  0.1666666719999981  0.8333333129999971
  0.8333333129999971  0.1666666719999981  0.8333333129999971
  0.1666666719999981  0.8333333129999971  0.1666666719999981
  0.1666666719999981  0.8333333129999971  0.8333333129999971
  0.8333333129999971  0.1666666719999981  0.1666666719999981
  0.2500000000000000  0.2500000000000000  0.2500000000000000
  0.9166666870000029  0.9166666870000029  0.9166666870000029
  0.9166666870000029  0.9166666870000029  0.2500000000000000
  0.2500000000000000  0.2500000000000000  0.9166666870000029
  0.9166666870000029  0.2500000000000000  0.9166666870000029
  0.2500000000000000  0.9166666870000029  0.2500000000000000
  0.2500000000000000  0.9166666870000029  0.9166666870000029
  0.9166666870000029  0.2500000000000000  0.2500000000000000
  0.1666666719999981  0.1666666719999981  0.3333333429999996
  0.8333333129999971  0.8333333129999971  0.6666666870000029
  0.8333333129999971  0.8333333129999971  0.3333333429999996
  0.1666666719999981  0.1666666719999981  0.6666666870000029
  0.8333333129999971  0.1666666719999981  0.6666666870000029
  0.1666666719999981  0.8333333129999971  0.3333333429999996
  0.1666666719999981  0.8333333129999971  0.6666666870000029
  0.8333333129999971  0.1666666719999981  0.3333333429999996
  0.3333333429999996  0.1666666719999981  0.1666666719999981
  0.6666666870000029  0.8333333129999971  0.8333333129999971
  0.3333333429999996  0.8333333129999971  0.8333333129999971
  0.6666666870000029  0.1666666719999981  0.1666666719999981
  0.6666666870000029  0.8333333129999971  0.1666666719999981
  0.3333333429999996  0.1666666719999981  0.8333333129999971
  0.6666666870000029  0.1666666719999981  0.8333333129999971
  0.3333333429999996  0.8333333129999971  0.1666666719999981
  0.1666666719999981  0.3333333429999996  0.1666666719999981
  0.8333333129999971  0.6666666870000029  0.8333333129999971
  0.8333333129999971  0.3333333429999996  0.8333333129999971
  0.1666666719999981  0.6666666870000029  0.1666666719999981
  0.1666666719999981  0.6666666870000029  0.8333333129999971
  0.8333333129999971  0.3333333429999996  0.1666666719999981
  0.8333333129999971  0.6666666870000029  0.1666666719999981
  0.1666666719999981  0.3333333429999996  0.8333333129999971
  0.2500000000000000  0.2500000000000000  0.4166666570000004
  0.9166666870000029  0.9166666870000029  0.7500000000000000
  0.9166666870000029  0.9166666870000029  0.4166666570000004
  0.2500000000000000  0.2500000000000000  0.7500000000000000
  0.9166666870000029  0.2500000000000000  0.7500000000000000
  0.2500000000000000  0.9166666870000029  0.4166666570000004
  0.2500000000000000  0.9166666870000029  0.7500000000000000
  0.9166666870000029  0.2500000000000000  0.4166666570000004
  0.4166666570000004  0.2500000000000000  0.2500000000000000
  0.7500000000000000  0.9166666870000029  0.9166666870000029
  0.4166666570000004  0.9166666870000029  0.9166666870000029
  0.7500000000000000  0.2500000000000000  0.2500000000000000
  0.7500000000000000  0.9166666870000029  0.2500000000000000
  0.4166666570000004  0.2500000000000000  0.9166666870000029
  0.7500000000000000  0.2500000000000000  0.9166666870000029
  0.4166666570000004  0.9166666870000029  0.2500000000000000
  0.2500000000000000  0.4166666570000004  0.2500000000000000
  0.9166666870000029  0.7500000000000000  0.9166666870000029
  0.9166666870000029  0.4166666570000004  0.9166666870000029
  0.2500000000000000  0.7500000000000000  0.2500000000000000
  0.2500000000000000  0.7500000000000000  0.9166666870000029
  0.9166666870000029  0.4166666570000004  0.2500000000000000
  0.9166666870000029  0.7500000000000000  0.2500000000000000
  0.2500000000000000  0.4166666570000004  0.9166666870000029
  0.1666666719999981  0.1666666719999981  0.5000000000000000
  0.8333333129999971  0.8333333129999971  0.5000000000000000
  0.8333333129999971  0.1666666719999981  0.5000000000000000
  0.1666666719999981  0.8333333129999971  0.5000000000000000
  0.5000000000000000  0.1666666719999981  0.1666666719999981
  0.5000000000000000  0.8333333129999971  0.8333333129999971
  0.5000000000000000  0.8333333129999971  0.1666666719999981
  0.5000000000000000  0.1666666719999981  0.8333333129999971
  0.1666666719999981  0.5000000000000000  0.1666666719999981
  0.8333333129999971  0.5000000000000000  0.8333333129999971
  0.1666666719999981  0.5000000000000000  0.8333333129999971
  0.8333333129999971  0.5000000000000000  0.1666666719999981
  0.2500000000000000  0.2500000000000000  0.5833333129999971
  0.9166666870000029  0.9166666870000029  0.5833333129999971
  0.9166666870000029  0.2500000000000000  0.5833333129999971
  0.2500000000000000  0.9166666870000029  0.5833333129999971
  0.5833333129999971  0.2500000000000000  0.2500000000000000
  0.5833333129999971  0.9166666870000029  0.9166666870000029
  0.5833333129999971  0.9166666870000029  0.2500000000000000
  0.5833333129999971  0.2500000000000000  0.9166666870000029
  0.2500000000000000  0.5833333129999971  0.2500000000000000
  0.9166666870000029  0.5833333129999971  0.9166666870000029
  0.2500000000000000  0.5833333129999971  0.9166666870000029
  0.9166666870000029  0.5833333129999971  0.2500000000000000
  0.1666666719999981  0.3333333429999996  0.3333333429999996
  0.8333333129999971  0.6666666870000029  0.6666666870000029
  0.8333333129999971  0.6666666870000029  0.3333333429999996
  0.1666666719999981  0.3333333429999996  0.6666666870000029
  0.8333333129999971  0.3333333429999996  0.6666666870000029
  0.1666666719999981  0.6666666870000029  0.3333333429999996
  0.1666666719999981  0.6666666870000029  0.6666666870000029
  0.8333333129999971  0.3333333429999996  0.3333333429999996
  0.3333333429999996  0.1666666719999981  0.3333333429999996
  0.6666666870000029  0.8333333129999971  0.6666666870000029
  0.3333333429999996  0.8333333129999971  0.6666666870000029
  0.6666666870000029  0.1666666719999981  0.3333333429999996
  0.6666666870000029  0.8333333129999971  0.3333333429999996
  0.3333333429999996  0.1666666719999981  0.6666666870000029
  0.6666666870000029  0.1666666719999981  0.6666666870000029
  0.3333333429999996  0.8333333129999971  0.3333333429999996
  0.3333333429999996  0.3333333429999996  0.1666666719999981
  0.6666666870000029  0.6666666870000029  0.8333333129999971
  0.6666666870000029  0.3333333429999996  0.8333333129999971
  0.3333333429999996  0.6666666870000029  0.1666666719999981
  0.3333333429999996  0.6666666870000029  0.8333333129999971
  0.6666666870000029  0.3333333429999996  0.1666666719999981
  0.6666666870000029  0.6666666870000029  0.1666666719999981
  0.3333333429999996  0.3333333429999996  0.8333333129999971
  0.2500000000000000  0.4166666570000004  0.4166666570000004
  0.9166666870000029  0.7500000000000000  0.7500000000000000
  0.9166666870000029  0.7500000000000000  0.4166666570000004
  0.2500000000000000  0.4166666570000004  0.7500000000000000
  0.9166666870000029  0.4166666570000004  0.7500000000000000
  0.2500000000000000  0.7500000000000000  0.4166666570000004
  0.2500000000000000  0.7500000000000000  0.7500000000000000
  0.9166666870000029  0.4166666570000004  0.4166666570000004
  0.4166666570000004  0.2500000000000000  0.4166666570000004
  0.7500000000000000  0.9166666870000029  0.7500000000000000
  0.4166666570000004  0.9166666870000029  0.7500000000000000
  0.7500000000000000  0.2500000000000000  0.4166666570000004
  0.7500000000000000  0.9166666870000029  0.4166666570000004
  0.4166666570000004  0.2500000000000000  0.7500000000000000
  0.7500000000000000  0.2500000000000000  0.7500000000000000
  0.4166666570000004  0.9166666870000029  0.4166666570000004
  0.4166666570000004  0.4166666570000004  0.2500000000000000
  0.7500000000000000  0.7500000000000000  0.9166666870000029
  0.7500000000000000  0.4166666570000004  0.9166666870000029
  0.4166666570000004  0.7500000000000000  0.2500000000000000
  0.4166666570000004  0.7500000000000000  0.9166666870000029
  0.7500000000000000  0.4166666570000004  0.2500000000000000
  0.7500000000000000  0.7500000000000000  0.2500000000000000
  0.4166666570000004  0.4166666570000004  0.9166666870000029
  0.1666666719999981  0.3333333429999996  0.5000000000000000
  0.8333333129999971  0.6666666870000029  0.5000000000000000
  0.8333333129999971  0.3333333429999996  0.5000000000000000
  0.1666666719999981  0.6666666870000029  0.5000000000000000
  0.5000000000000000  0.1666666719999981  0.3333333429999996
  0.5000000000000000  0.8333333129999971  0.6666666870000029
  0.5000000000000000  0.8333333129999971  0.3333333429999996
  0.5000000000000000  0.1666666719999981  0.6666666870000029
  0.3333333429999996  0.5000000000000000  0.1666666719999981
  0.6666666870000029  0.5000000000000000  0.8333333129999971
  0.3333333429999996  0.5000000000000000  0.8333333129999971
  0.6666666870000029  0.5000000000000000  0.1666666719999981
  0.3333333429999996  0.1666666719999981  0.5000000000000000
  0.6666666870000029  0.8333333129999971  0.5000000000000000
  0.3333333429999996  0.8333333129999971  0.5000000000000000
  0.6666666870000029  0.1666666719999981  0.5000000000000000
  0.1666666719999981  0.5000000000000000  0.6666666870000029
  0.8333333129999971  0.5000000000000000  0.3333333429999996
  0.8333333129999971  0.5000000000000000  0.6666666870000029
  0.1666666719999981  0.5000000000000000  0.3333333429999996
  0.5000000000000000  0.3333333429999996  0.8333333129999971
  0.5000000000000000  0.6666666870000029  0.1666666719999981
  0.5000000000000000  0.3333333429999996  0.1666666719999981
  0.5000000000000000  0.6666666870000029  0.8333333129999971
  0.2500000000000000  0.4166666570000004  0.5833333129999971
  0.9166666870000029  0.7500000000000000  0.5833333129999971
  0.9166666870000029  0.4166666570000004  0.5833333129999971
  0.2500000000000000  0.7500000000000000  0.5833333129999971
  0.5833333129999971  0.2500000000000000  0.4166666570000004
  0.5833333129999971  0.9166666870000029  0.7500000000000000
  0.5833333129999971  0.9166666870000029  0.4166666570000004
  0.5833333129999971  0.2500000000000000  0.7500000000000000
  0.4166666570000004  0.5833333129999971  0.2500000000000000
  0.7500000000000000  0.5833333129999971  0.9166666870000029
  0.4166666570000004  0.5833333129999971  0.9166666870000029
  0.7500000000000000  0.5833333129999971  0.2500000000000000
  0.4166666570000004  0.2500000000000000  0.5833333129999971
  0.7500000000000000  0.9166666870000029  0.5833333129999971
  0.4166666570000004  0.9166666870000029  0.5833333129999971
  0.7500000000000000  0.2500000000000000  0.5833333129999971
  0.2500000000000000  0.5833333129999971  0.7500000000000000
  0.9166666870000029  0.5833333129999971  0.4166666570000004
  0.9166666870000029  0.5833333129999971  0.7500000000000000
  0.2500000000000000  0.5833333129999971  0.4166666570000004
  0.5833333129999971  0.4166666570000004  0.9166666870000029
  0.5833333129999971  0.7500000000000000  0.2500000000000000
  0.5833333129999971  0.4166666570000004  0.2500000000000000
  0.5833333129999971  0.7500000000000000  0.9166666870000029
  0.1666666719999981  0.5000000000000000  0.5000000000000000
  0.8333333129999971  0.5000000000000000  0.5000000000000000
  0.5000000000000000  0.1666666719999981  0.5000000000000000
  0.5000000000000000  0.8333333129999971  0.5000000000000000
  0.5000000000000000  0.5000000000000000  0.1666666719999981
  0.5000000000000000  0.5000000000000000  0.8333333129999971
  0.2500000000000000  0.5833333129999971  0.5833333129999971
  0.9166666870000029  0.5833333129999971  0.5833333129999971
  0.5833333129999971  0.2500000000000000  0.5833333129999971
  0.5833333129999971  0.9166666870000029  0.5833333129999971
  0.5833333129999971  0.5833333129999971  0.2500000000000000
  0.5833333129999971  0.5833333129999971  0.9166666870000029
  0.3333333429999996  0.3333333429999996  0.3333333429999996
  0.6666666870000029  0.6666666870000029  0.6666666870000029
  0.6666666870000029  0.6666666870000029  0.3333333429999996
  0.3333333429999996  0.3333333429999996  0.6666666870000029
  0.6666666870000029  0.3333333429999996  0.6666666870000029
  0.3333333429999996  0.6666666870000029  0.3333333429999996
  0.3333333429999996  0.6666666870000029  0.6666666870000029
  0.6666666870000029  0.3333333429999996  0.3333333429999996
  0.4166666570000004  0.4166666570000004  0.4166666570000004
  0.7500000000000000  0.7500000000000000  0.7500000000000000
  0.7500000000000000  0.7500000000000000  0.4166666570000004
  0.4166666570000004  0.4166666570000004  0.7500000000000000
  0.7500000000000000  0.4166666570000004  0.7500000000000000
  0.4166666570000004  0.7500000000000000  0.4166666570000004
  0.4166666570000004  0.7500000000000000  0.7500000000000000
  0.7500000000000000  0.4166666570000004  0.4166666570000004
  0.3333333429999996  0.3333333429999996  0.5000000000000000
  0.6666666870000029  0.6666666870000029  0.5000000000000000
  0.6666666870000029  0.3333333429999996  0.5000000000000000
  0.3333333429999996  0.6666666870000029  0.5000000000000000
  0.5000000000000000  0.3333333429999996  0.3333333429999996
  0.5000000000000000  0.6666666870000029  0.6666666870000029
  0.5000000000000000  0.6666666870000029  0.3333333429999996
  0.5000000000000000  0.3333333429999996  0.6666666870000029
  0.3333333429999996  0.5000000000000000  0.3333333429999996
  0.6666666870000029  0.5000000000000000  0.6666666870000029
  0.3333333429999996  0.5000000000000000  0.6666666870000029
  0.6666666870000029  0.5000000000000000  0.3333333429999996
  0.4166666570000004  0.4166666570000004  0.5833333129999971
  0.7500000000000000  0.7500000000000000  0.5833333129999971
  0.7500000000000000  0.4166666570000004  0.5833333129999971
  0.4166666570000004  0.7500000000000000  0.5833333129999971
  0.5833333129999971  0.4166666570000004  0.4166666570000004
  0.5833333129999971  0.7500000000000000  0.7500000000000000
  0.5833333129999971  0.7500000000000000  0.4166666570000004
  0.5833333129999971  0.4166666570000004  0.7500000000000000
  0.4166666570000004  0.5833333129999971  0.4166666570000004
  0.7500000000000000  0.5833333129999971  0.7500000000000000
  0.4166666570000004  0.5833333129999971  0.7500000000000000
  0.7500000000000000  0.5833333129999971  0.4166666570000004
  0.3333333429999996  0.5000000000000000  0.5000000000000000
  0.6666666870000029  0.5000000000000000  0.5000000000000000
  0.5000000000000000  0.3333333429999996  0.5000000000000000
  0.5000000000000000  0.6666666870000029  0.5000000000000000
  0.5000000000000000  0.5000000000000000  0.3333333429999996
  0.5000000000000000  0.5000000000000000  0.6666666870000029
  0.4166666570000004  0.5833333129999971  0.5833333129999971
  0.7500000000000000  0.5833333129999971  0.5833333129999971
  0.5833333129999971  0.4166666570000004  0.5833333129999971
  0.5833333129999971  0.7500000000000000  0.5833333129999971
  0.5833333129999971  0.5833333129999971  0.4166666570000004
  0.5833333129999971  0.5833333129999971  0.7500000000000000
  0.5000000000000000  0.5000000000000000  0.5000000000000000
  0.5833333129999971  0.5833333129999971  0.5833333129999971