Fe2                                     
1.0
       16.8961791992         0.0000000000         0.0000000000
       -8.4480895996        14.6325204134         0.0000000000
        0.0000000000         0.0000000000        26.8905086517
   Fe
 1024
Direct
     0.041666668         0.083333336         0.031250000
     0.041666668         0.083333336         0.281250000
     0.041666668         0.083333336         0.531250000
     0.041666668         0.083333336         0.781250000
     0.041666668         0.333333343         0.031250000
     0.041666668         0.333333343         0.281250000
     0.041666668         0.333333343         0.531250000
     0.041666668         0.333333343         0.781250000
     0.041666668         0.583333313         0.031250000
     0.041666668         0.583333313         0.281250000
     0.041666668         0.583333313         0.531250000
     0.041666668         0.583333313         0.781250000
     0.041666668         0.833333313         0.031250000
     0.041666668         0.833333313         0.281250000
     0.041666668         0.833333313         0.531250000
     0.041666668         0.833333313         0.781250000
     0.291666657         0.083333336         0.031250000
     0.291666657         0.083333336         0.281250000
     0.291666657         0.083333336         0.531250000
     0.291666657         0.083333336         0.781250000
     0.291666657         0.333333343         0.031250000
     0.291666657         0.333333343         0.281250000
     0.291666657         0.333333343         0.531250000
     0.291666657         0.333333343         0.781250000
     0.291666657         0.583333313         0.031250000
     0.291666657         0.583333313         0.281250000
     0.291666657         0.583333313         0.531250000
     0.291666657         0.583333313         0.781250000
     0.291666657         0.833333313         0.031250000
     0.291666657         0.833333313         0.281250000
     0.291666657         0.833333313         0.531250000
     0.291666657         0.833333313         0.781250000
     0.541666687         0.083333336         0.031250000
     0.541666687         0.083333336         0.281250000
     0.541666687         0.083333336         0.531250000
     0.541666687         0.083333336         0.781250000
     0.541666687         0.333333343         0.031250000
     0.541666687         0.333333343         0.281250000
     0.541666687         0.333333343         0.531250000
     0.541666687         0.333333343         0.781250000
     0.541666687         0.583333313         0.031250000
     0.541666687         0.583333313         0.281250000
     0.541666687         0.583333313         0.531250000
     0.541666687         0.583333313         0.781250000
     0.541666687         0.833333313         0.031250000
     0.541666687         0.833333313         0.281250000
     0.541666687         0.833333313         0.531250000
     0.541666687         0.833333313         0.781250000
     0.791666687         0.083333336         0.031250000
     0.791666687         0.083333336         0.281250000
     0.791666687         0.083333336         0.531250000
     0.791666687         0.083333336         0.781250000
     0.791666687         0.333333343         0.031250000
     0.791666687         0.333333343         0.281250000
     0.791666687         0.333333343         0.531250000
     0.791666687         0.333333343         0.781250000
     0.791666687         0.583333313         0.031250000
     0.791666687         0.583333313         0.281250000
     0.791666687         0.583333313         0.531250000
     0.791666687         0.583333313         0.781250000
     0.791666687         0.833333313         0.031250000
     0.791666687         0.833333313         0.281250000
     0.791666687         0.833333313         0.531250000
     0.791666687         0.833333313         0.781250000
     0.041666668         0.083333336         0.156250000
     0.041666668         0.083333336         0.406250000
     0.041666668         0.083333336         0.656250000
     0.041666668         0.083333336         0.906250000
     0.041666668         0.333333343         0.156250000
     0.041666668         0.333333343         0.406250000
     0.041666668         0.333333343         0.656250000
     0.041666668         0.333333343         0.906250000
     0.041666668         0.583333313         0.156250000
     0.041666668         0.583333313         0.406250000
     0.041666668         0.583333313         0.656250000
     0.041666668         0.583333313         0.906250000
     0.041666668         0.833333313         0.156250000
     0.041666668         0.833333313         0.406250000
     0.041666668         0.833333313         0.656250000
     0.041666668         0.833333313         0.906250000
     0.291666657         0.083333336         0.156250000
     0.291666657         0.083333336         0.406250000
     0.291666657         0.083333336         0.656250000
     0.291666657         0.083333336         0.906250000
     0.291666657         0.333333343         0.156250000
     0.291666657         0.333333343         0.406250000
     0.291666657         0.333333343         0.656250000
     0.291666657         0.333333343         0.906250000
     0.291666657         0.583333313         0.156250000
     0.291666657         0.583333313         0.406250000
     0.291666657         0.583333313         0.656250000
     0.291666657         0.583333313         0.906250000
     0.291666657         0.833333313         0.156250000
     0.291666657         0.833333313         0.406250000
     0.291666657         0.833333313         0.656250000
     0.291666657         0.833333313         0.906250000
     0.541666687         0.083333336         0.156250000
     0.541666687         0.083333336         0.406250000
     0.541666687         0.083333336         0.656250000
     0.541666687         0.083333336         0.906250000
     0.541666687         0.333333343         0.156250000
     0.541666687         0.333333343         0.406250000
     0.541666687         0.333333343         0.656250000
     0.541666687         0.333333343         0.906250000
     0.541666687         0.583333313         0.156250000
     0.541666687         0.583333313         0.406250000
     0.541666687         0.583333313         0.656250000
     0.541666687         0.583333313         0.906250000
     0.541666687         0.833333313         0.156250000
     0.541666687         0.833333313         0.406250000
     0.541666687         0.833333313         0.656250000
     0.541666687         0.833333313         0.906250000
     0.791666687         0.083333336         0.156250000
     0.791666687         0.083333336         0.406250000
     0.791666687         0.083333336         0.656250000
     0.791666687         0.083333336         0.906250000
     0.791666687         0.333333343         0.156250000
     0.791666687         0.333333343         0.406250000
     0.791666687         0.333333343         0.656250000
     0.791666687         0.333333343         0.906250000
     0.791666687         0.583333313         0.156250000
     0.791666687         0.583333313         0.406250000
     0.791666687         0.583333313         0.656250000
     0.791666687         0.583333313         0.906250000
     0.791666687         0.833333313         0.156250000
     0.791666687         0.833333313         0.406250000
     0.791666687         0.833333313         0.656250000
     0.791666687         0.833333313         0.906250000
     0.041666668         0.208333343         0.031250000
     0.041666668         0.208333343         0.281250000
     0.041666668         0.208333343         0.531250000
     0.041666668         0.208333343         0.781250000
     0.041666668         0.458333343         0.031250000
     0.041666668         0.458333343         0.281250000
     0.041666668         0.458333343         0.531250000
     0.041666668         0.458333343         0.781250000
     0.041666668         0.708333373         0.031250000
     0.041666668         0.708333373         0.281250000
     0.041666668         0.708333373         0.531250000
     0.041666668         0.708333373         0.781250000
     0.041666668         0.958333373         0.031250000
     0.041666668         0.958333373         0.281250000
     0.041666668         0.958333373         0.531250000
     0.041666668         0.958333373         0.781250000
     0.291666657         0.208333343         0.031250000
     0.291666657         0.208333343         0.281250000
     0.291666657         0.208333343         0.531250000
     0.291666657         0.208333343         0.781250000
     0.291666657         0.458333343         0.031250000
     0.291666657         0.458333343         0.281250000
     0.291666657         0.458333343         0.531250000
     0.291666657         0.458333343         0.781250000
     0.291666657         0.708333373         0.031250000
     0.291666657         0.708333373         0.281250000
     0.291666657         0.708333373         0.531250000
     0.291666657         0.708333373         0.781250000
     0.291666657         0.958333373         0.031250000
     0.291666657         0.958333373         0.281250000
     0.291666657         0.958333373         0.531250000
     0.291666657         0.958333373         0.781250000
     0.541666687         0.208333343         0.031250000
     0.541666687         0.208333343         0.281250000
     0.541666687         0.208333343         0.531250000
     0.541666687         0.208333343         0.781250000
     0.541666687         0.458333343         0.031250000
     0.541666687         0.458333343         0.281250000
     0.541666687         0.458333343         0.531250000
     0.541666687         0.458333343         0.781250000
     0.541666687         0.708333373         0.031250000
     0.541666687         0.708333373         0.281250000
     0.541666687         0.708333373         0.531250000
     0.541666687         0.708333373         0.781250000
     0.541666687         0.958333373         0.031250000
     0.541666687         0.958333373         0.281250000
     0.541666687         0.958333373         0.531250000
     0.541666687         0.958333373         0.781250000
     0.791666687         0.208333343         0.031250000
     0.791666687         0.208333343         0.281250000
     0.791666687         0.208333343         0.531250000
     0.791666687         0.208333343         0.781250000
     0.791666687         0.458333343         0.031250000
     0.791666687         0.458333343         0.281250000
     0.791666687         0.458333343         0.531250000
     0.791666687         0.458333343         0.781250000
     0.791666687         0.708333373         0.031250000
     0.791666687         0.708333373         0.281250000
     0.791666687         0.708333373         0.531250000
     0.791666687         0.708333373         0.781250000
     0.791666687         0.958333373         0.031250000
     0.791666687         0.958333373         0.281250000
     0.791666687         0.958333373         0.531250000
     0.791666687         0.958333373         0.781250000
     0.041666668         0.208333343         0.156250000
     0.041666668         0.208333343         0.406250000
     0.041666668         0.208333343         0.656250000
     0.041666668         0.208333343         0.906250000
     0.041666668         0.458333343         0.156250000
     0.041666668         0.458333343         0.406250000
     0.041666668         0.458333343         0.656250000
     0.041666668         0.458333343         0.906250000
     0.041666668         0.708333373         0.156250000
     0.041666668         0.708333373         0.406250000
     0.041666668         0.708333373         0.656250000
     0.041666668         0.708333373         0.906250000
     0.041666668         0.958333373         0.156250000
     0.041666668         0.958333373         0.406250000
     0.041666668         0.958333373         0.656250000
     0.041666668         0.958333373         0.906250000
     0.291666657         0.208333343         0.156250000
     0.291666657         0.208333343         0.406250000
     0.291666657         0.208333343         0.656250000
     0.291666657         0.208333343         0.906250000
     0.291666657         0.458333343         0.156250000
     0.291666657         0.458333343         0.406250000
     0.291666657         0.458333343         0.656250000
     0.291666657         0.458333343         0.906250000
     0.291666657         0.708333373         0.156250000
     0.291666657         0.708333373         0.406250000
     0.291666657         0.708333373         0.656250000
     0.291666657         0.708333373         0.906250000
     0.291666657         0.958333373         0.156250000
     0.291666657         0.958333373         0.406250000
     0.291666657         0.958333373         0.656250000
     0.291666657         0.958333373         0.906250000
     0.541666687         0.208333343         0.156250000
     0.541666687         0.208333343         0.406250000
     0.541666687         0.208333343         0.656250000
     0.541666687         0.208333343         0.906250000
     0.541666687         0.458333343         0.156250000
     0.541666687         0.458333343         0.406250000
     0.541666687         0.458333343         0.656250000
     0.541666687         0.458333343         0.906250000
     0.541666687         0.708333373         0.156250000
     0.541666687         0.708333373         0.406250000
     0.541666687         0.708333373         0.656250000
     0.541666687         0.708333373         0.906250000
     0.541666687         0.958333373         0.156250000
     0.541666687         0.958333373         0.406250000
     0.541666687         0.958333373         0.656250000
     0.541666687         0.958333373         0.906250000
     0.791666687         0.208333343         0.156250000
     0.791666687         0.208333343         0.406250000
     0.791666687         0.208333343         0.656250000
     0.791666687         0.208333343         0.906250000
     0.791666687         0.458333343         0.156250000
     0.791666687         0.458333343         0.406250000
     0.791666687         0.458333343         0.656250000
     0.791666687         0.458333343         0.906250000
     0.791666687         0.708333373         0.156250000
     0.791666687         0.708333373         0.406250000
     0.791666687         0.708333373         0.656250000
     0.791666687         0.708333373         0.906250000
     0.791666687         0.958333373         0.156250000
     0.791666687         0.958333373         0.406250000
     0.791666687         0.958333373         0.656250000
     0.791666687         0.958333373         0.906250000
     0.166666672         0.083333336         0.031250000
     0.166666672         0.083333336         0.281250000
     0.166666672         0.083333336         0.531250000
     0.166666672         0.083333336         0.781250000
     0.166666672         0.333333343         0.031250000
     0.166666672         0.333333343         0.281250000
     0.166666672         0.333333343         0.531250000
     0.166666672         0.333333343         0.781250000
     0.166666672         0.583333313         0.031250000
     0.166666672         0.583333313         0.281250000
     0.166666672         0.583333313         0.531250000
     0.166666672         0.583333313         0.781250000
     0.166666672         0.833333313         0.031250000
     0.166666672         0.833333313         0.281250000
     0.166666672         0.833333313         0.531250000
     0.166666672         0.833333313         0.781250000
     0.416666687         0.083333336         0.031250000
     0.416666687         0.083333336         0.281250000
     0.416666687         0.083333336         0.531250000
     0.416666687         0.083333336         0.781250000
     0.416666687         0.333333343         0.031250000
     0.416666687         0.333333343         0.281250000
     0.416666687         0.333333343         0.531250000
     0.416666687         0.333333343         0.781250000
     0.416666687         0.583333313         0.031250000
     0.416666687         0.583333313         0.281250000
     0.416666687         0.583333313         0.531250000
     0.416666687         0.583333313         0.781250000
     0.416666687         0.833333313         0.031250000
     0.416666687         0.833333313         0.281250000
     0.416666687         0.833333313         0.531250000
     0.416666687         0.833333313         0.781250000
     0.666666687         0.083333336         0.031250000
     0.666666687         0.083333336         0.281250000
     0.666666687         0.083333336         0.531250000
     0.666666687         0.083333336         0.781250000
     0.666666687         0.333333343         0.031250000
     0.666666687         0.333333343         0.281250000
     0.666666687         0.333333343         0.531250000
     0.666666687         0.333333343         0.781250000
     0.666666687         0.583333313         0.031250000
     0.666666687         0.583333313         0.281250000
     0.666666687         0.583333313         0.531250000
     0.666666687         0.583333313         0.781250000
     0.666666687         0.833333313         0.031250000
     0.666666687         0.833333313         0.281250000
     0.666666687         0.833333313         0.531250000
     0.666666687         0.833333313         0.781250000
     0.916666687         0.083333336         0.031250000
     0.916666687         0.083333336         0.281250000
     0.916666687         0.083333336         0.531250000
     0.916666687         0.083333336         0.781250000
     0.916666687         0.333333343         0.031250000
     0.916666687         0.333333343         0.281250000
     0.916666687         0.333333343         0.531250000
     0.916666687         0.333333343         0.781250000
     0.916666687         0.583333313         0.031250000
     0.916666687         0.583333313         0.281250000
     0.916666687         0.583333313         0.531250000
     0.916666687         0.583333313         0.781250000
     0.916666687         0.833333313         0.031250000
     0.916666687         0.833333313         0.281250000
     0.916666687         0.833333313         0.531250000
     0.916666687         0.833333313         0.781250000
     0.166666672         0.083333336         0.156250000
     0.166666672         0.083333336         0.406250000
     0.166666672         0.083333336         0.656250000
     0.166666672         0.083333336         0.906250000
     0.166666672         0.333333343         0.156250000
     0.166666672         0.333333343         0.406250000
     0.166666672         0.333333343         0.656250000
     0.166666672         0.333333343         0.906250000
     0.166666672         0.583333313         0.156250000
     0.166666672         0.583333313         0.406250000
     0.166666672         0.583333313         0.656250000
     0.166666672         0.583333313         0.906250000
     0.166666672         0.833333313         0.156250000
     0.166666672         0.833333313         0.406250000
     0.166666672         0.833333313         0.656250000
     0.166666672         0.833333313         0.906250000
     0.416666687         0.083333336         0.156250000
     0.416666687         0.083333336         0.406250000
     0.416666687         0.083333336         0.656250000
     0.416666687         0.083333336         0.906250000
     0.416666687         0.333333343         0.156250000
     0.416666687         0.333333343         0.406250000
     0.416666687         0.333333343         0.656250000
     0.416666687         0.333333343         0.906250000
     0.416666687         0.583333313         0.156250000
     0.416666687         0.583333313         0.406250000
     0.416666687         0.583333313         0.656250000
     0.416666687         0.583333313         0.906250000
     0.416666687         0.833333313         0.156250000
     0.416666687         0.833333313         0.406250000
     0.416666687         0.833333313         0.656250000
     0.416666687         0.833333313         0.906250000
     0.666666687         0.083333336         0.156250000
     0.666666687         0.083333336         0.406250000
     0.666666687         0.083333336         0.656250000
     0.666666687         0.083333336         0.906250000
     0.666666687         0.333333343         0.156250000
     0.666666687         0.333333343         0.406250000
     0.666666687         0.333333343         0.656250000
     0.666666687         0.333333343         0.906250000
     0.666666687         0.583333313         0.156250000
     0.666666687         0.583333313         0.406250000
     0.666666687         0.583333313         0.656250000
     0.666666687         0.583333313         0.906250000
     0.666666687         0.833333313         0.156250000
     0.666666687         0.833333313         0.406250000
     0.666666687         0.833333313         0.656250000
     0.666666687         0.833333313         0.906250000
     0.916666687         0.083333336         0.156250000
     0.916666687         0.083333336         0.406250000
     0.916666687         0.083333336         0.656250000
     0.916666687         0.083333336         0.906250000
     0.916666687         0.333333343         0.156250000
     0.916666687         0.333333343         0.406250000
     0.916666687         0.333333343         0.656250000
     0.916666687         0.333333343         0.906250000
     0.916666687         0.583333313         0.156250000
     0.916666687         0.583333313         0.406250000
     0.916666687         0.583333313         0.656250000
     0.916666687         0.583333313         0.906250000
     0.916666687         0.833333313         0.156250000
     0.916666687         0.833333313         0.406250000
     0.916666687         0.833333313         0.656250000
     0.916666687         0.833333313         0.906250000
     0.166666672         0.208333343         0.031250000
     0.166666672         0.208333343         0.281250000
     0.166666672         0.208333343         0.531250000
     0.166666672         0.208333343         0.781250000
     0.166666672         0.458333343         0.031250000
     0.166666672         0.458333343         0.281250000
     0.166666672         0.458333343         0.531250000
     0.166666672         0.458333343         0.781250000
     0.166666672         0.708333373         0.031250000
     0.166666672         0.708333373         0.281250000
     0.166666672         0.708333373         0.531250000
     0.166666672         0.708333373         0.781250000
     0.166666672         0.958333373         0.031250000
     0.166666672         0.958333373         0.281250000
     0.166666672         0.958333373         0.531250000
     0.166666672         0.958333373         0.781250000
     0.416666687         0.208333343         0.031250000
     0.416666687         0.208333343         0.281250000
     0.416666687         0.208333343         0.531250000
     0.416666687         0.208333343         0.781250000
     0.416666687         0.458333343         0.031250000
     0.416666687         0.458333343         0.281250000
     0.416666687         0.458333343         0.531250000
     0.416666687         0.458333343         0.781250000
     0.416666687         0.708333373         0.031250000
     0.416666687         0.708333373         0.281250000
     0.416666687         0.708333373         0.531250000
     0.416666687         0.708333373         0.781250000
     0.416666687         0.958333373         0.031250000
     0.416666687         0.958333373         0.281250000
     0.416666687         0.958333373         0.531250000
     0.416666687         0.958333373         0.781250000
     0.666666687         0.208333343         0.031250000
     0.666666687         0.208333343         0.281250000
     0.666666687         0.208333343         0.531250000
     0.666666687         0.208333343         0.781250000
     0.666666687         0.458333343         0.031250000
     0.666666687         0.458333343         0.281250000
     0.666666687         0.458333343         0.531250000
     0.666666687         0.458333343         0.781250000
     0.666666687         0.708333373         0.031250000
     0.666666687         0.708333373         0.281250000
     0.666666687         0.708333373         0.531250000
     0.666666687         0.708333373         0.781250000
     0.666666687         0.958333373         0.031250000
     0.666666687         0.958333373         0.281250000
     0.666666687         0.958333373         0.531250000
     0.666666687         0.958333373         0.781250000
     0.916666687         0.208333343         0.031250000
     0.916666687         0.208333343         0.281250000
     0.916666687         0.208333343         0.531250000
     0.916666687         0.208333343         0.781250000
     0.916666687         0.458333343         0.031250000
     0.916666687         0.458333343         0.281250000
     0.916666687         0.458333343         0.531250000
     0.916666687         0.458333343         0.781250000
     0.916666687         0.708333373         0.031250000
     0.916666687         0.708333373         0.281250000
     0.916666687         0.708333373         0.531250000
     0.916666687         0.708333373         0.781250000
     0.916666687         0.958333373         0.031250000
     0.916666687         0.958333373         0.281250000
     0.916666687         0.958333373         0.531250000
     0.916666687         0.958333373         0.781250000
     0.166666672         0.208333343         0.156250000
     0.166666672         0.208333343         0.406250000
     0.166666672         0.208333343         0.656250000
     0.166666672         0.208333343         0.906250000
     0.166666672         0.458333343         0.156250000
     0.166666672         0.458333343         0.406250000
     0.166666672         0.458333343         0.656250000
     0.166666672         0.458333343         0.906250000
     0.166666672         0.708333373         0.156250000
     0.166666672         0.708333373         0.406250000
     0.166666672         0.708333373         0.656250000
     0.166666672         0.708333373         0.906250000
     0.166666672         0.958333373         0.156250000
     0.166666672         0.958333373         0.406250000
     0.166666672         0.958333373         0.656250000
     0.166666672         0.958333373         0.906250000
     0.416666687         0.208333343         0.156250000
     0.416666687         0.208333343         0.406250000
     0.416666687         0.208333343         0.656250000
     0.416666687         0.208333343         0.906250000
     0.416666687         0.458333343         0.156250000
     0.416666687         0.458333343         0.406250000
     0.416666687         0.458333343         0.656250000
     0.416666687         0.458333343         0.906250000
     0.416666687         0.708333373         0.156250000
     0.416666687         0.708333373         0.406250000
     0.416666687         0.708333373         0.656250000
     0.416666687         0.708333373         0.906250000
     0.416666687         0.958333373         0.156250000
     0.416666687         0.958333373         0.406250000
     0.416666687         0.958333373         0.656250000
     0.416666687         0.958333373         0.906250000
     0.666666687         0.208333343         0.156250000
     0.666666687         0.208333343         0.406250000
     0.666666687         0.208333343         0.656250000
     0.666666687         0.208333343         0.906250000
     0.666666687         0.458333343         0.156250000
     0.666666687         0.458333343         0.406250000
     0.666666687         0.458333343         0.656250000
     0.666666687         0.458333343         0.906250000
     0.666666687         0.708333373         0.156250000
     0.666666687         0.708333373         0.406250000
     0.666666687         0.708333373         0.656250000
     0.666666687         0.708333373         0.906250000
     0.666666687         0.958333373         0.156250000
     0.666666687         0.958333373         0.406250000
     0.666666687         0.958333373         0.656250000
     0.666666687         0.958333373         0.906250000
     0.916666687         0.208333343         0.156250000
     0.916666687         0.208333343         0.406250000
     0.916666687         0.208333343         0.656250000
     0.916666687         0.208333343         0.906250000
     0.916666687         0.458333343         0.156250000
     0.916666687         0.458333343         0.406250000
     0.916666687         0.458333343         0.656250000
     0.916666687         0.458333343         0.906250000
     0.916666687         0.708333373         0.156250000
     0.916666687         0.708333373         0.406250000
     0.916666687         0.708333373         0.656250000
     0.916666687         0.708333373         0.906250000
     0.916666687         0.958333373         0.156250000
     0.916666687         0.958333373         0.406250000
     0.916666687         0.958333373         0.656250000
     0.916666687         0.958333373         0.906250000